14° run output:
{
    "Function": "kroA750.tsp",
    "Problem dimension": [
        33,
        611,
        376,
        93,
        411,
        209,
        48,
        597,
        360,
        239,
        325,
        162,
        407,
        213,
        429,
        672,
        69,
        233,
        417,
        142,
        633,
        593,
        136,
        145,
        308,
        371,
        651,
        418,
        684,
        110,
        52,
        274,
        41,
        157,
        480,
        646,
        297,
        534,
        588,
        456,
        282,
        116,
        151,
        165,
        463,
        556,
        674,
        369,
        569,
        260,
        560,
        475,
        549,
        618,
        10,
        241,
        251,
        628,
        580,
        31,
        676,
        577,
        401,
        193,
        187,
        415,
        49,
        143,
        53,
        656,
        554,
        192,
        287,
        438,
        648,
        76,
        631,
        737,
        400,
        694,
        664,
        291,
        720,
        675,
        357,
        612,
        605,
        9,
        245,
        445,
        432,
        567,
        654,
        149,
        163,
        271,
        304,
        91,
        92,
        107,
        314,
        170,
        249,
        253,
        533,
        330,
        692,
        58,
        659,
        669,
        518,
        140,
        682,
        627,
        373,
        276,
        536,
        57,
        167,
        586,
        38,
        199,
        552,
        205,
        332,
        312,
        328,
        88,
        379,
        268,
        655,
        579,
        128,
        483,
        293,
        326,
        217,
        194,
        354,
        693,
        406,
        416,
        591,
        647,
        34,
        225,
        570,
        228,
        344,
        262,
        404,
        203,
        574,
        182,
        397,
        331,
        514,
        604,
        139,
        202,
        558,
        572,
        29,
        313,
        707,
        519,
        89,
        388,
        281,
        255,
        561,
        303,
        272,
        65,
        141,
        683,
        206,
        135,
        45,
        387,
        215,
        144,
        496,
        229,
        430,
        630,
        594,
        497,
        83,
        156,
        362,
        12,
        14,
        161,
        498,
        100,
        324,
        439,
        184,
        444,
        399,
        8,
        315,
        105,
        3,
        553,
        138,
        734,
        747,
        377,
        191,
        641,
        563,
        310,
        506,
        542,
        277,
        461,
        462,
        120,
        342,
        349,
        44,
        643,
        510,
        619,
        21,
        104,
        492,
        721,
        13,
        515,
        173,
        729,
        704,
        513,
        244,
        385,
        470,
        39,
        230,
        610,
        114,
        454,
        566,
        247,
        172,
        22,
        23,
        602,
        433,
        298,
        481,
        302,
        238,
        108,
        640,
        590,
        402,
        289,
        20,
        67,
        409,
        103,
        689,
        212,
        573,
        183,
        292,
        502,
        218,
        449,
        343,
        296,
        745,
        174,
        335,
        528,
        616,
        673,
        658,
        425,
        66,
        427,
        644,
        346,
        152,
        393,
        460,
        688,
        1,
        458,
        19,
        408,
        77,
        15,
        476,
        30,
        113,
        311,
        450,
        587,
        318,
        101,
        501,
        405,
        150,
        235,
        63,
        370,
        337,
        290,
        46,
        236,
        176,
        487,
        467,
        364,
        412,
        288,
        419,
        365,
        320,
        578,
        207,
        735,
        453,
        522,
        423,
        436,
        351,
        216,
        686,
        367,
        702,
        670,
        507,
        6,
        523,
        148,
        705,
        629,
        541,
        153,
        154,
        177,
        452,
        111,
        171,
        384,
        243,
        125,
        620,
        374,
        131,
        317,
        381,
        5,
        601,
        350,
        112,
        322,
        27,
        652,
        603,
        256,
        657,
        700,
        178,
        237,
        359,
        435,
        309,
        257,
        85,
        471,
        208,
        231,
        642,
        64,
        61,
        74,
        581,
        615,
        201,
        261,
        484,
        224,
        267,
        743,
        617,
        685,
        75,
        431,
        345,
        248,
        86,
        283,
        32,
        280,
        363,
        394,
        543,
        546,
        718,
        334,
        368,
        499,
        730,
        382,
        437,
        265,
        710,
        490,
        482,
        505,
        181,
        665,
        491,
        517,
        391,
        190,
        662,
        724,
        250,
        723,
        440,
        668,
        56,
        677,
        266,
        175,
        621,
        185,
        51,
        164,
        214,
        106,
        278,
        469,
        366,
        254,
        709,
        609,
        426,
        316,
        96,
        540,
        240,
        733,
        24,
        396,
        671,
        691,
        389,
        600,
        398,
        479,
        613,
        645,
        155,
        375,
        200,
        742,
        727,
        159,
        79,
        210,
        477,
        443,
        493,
        625,
        198,
        123,
        94,
        97,
        466,
        219,
        653,
        59,
        441,
        585,
        714,
        622,
        699,
        119,
        711,
        37,
        451,
        485,
        526,
        263,
        50,
        378,
        744,
        223,
        227,
        636,
        678,
        333,
        551,
        582,
        525,
        660,
        16,
        696,
        424,
        559,
        0,
        545,
        465,
        697,
        300,
        413,
        421,
        457,
        81,
        531,
        749,
        133,
        301,
        275,
        486,
        626,
        635,
        748,
        82,
        565,
        494,
        623,
        306,
        719,
        122,
        403,
        539,
        464,
        341,
        695,
        703,
        327,
        495,
        269,
        186,
        447,
        352,
        78,
        18,
        323,
        715,
        329,
        340,
        503,
        708,
        661,
        98,
        614,
        583,
        575,
        188,
        537,
        4,
        532,
        7,
        488,
        87,
        422,
        529,
        624,
        264,
        650,
        681,
        500,
        728,
        666,
        285,
        442,
        204,
        634,
        147,
        741,
        137,
        47,
        455,
        521,
        726,
        446,
        386,
        706,
        36,
        468,
        535,
        564,
        220,
        115,
        504,
        118,
        43,
        169,
        632,
        746,
        26,
        197,
        716,
        725,
        717,
        738,
        226,
        180,
        524,
        258,
        130,
        11,
        361,
        356,
        383,
        639,
        380,
        168,
        305,
        592,
        584,
        512,
        2,
        62,
        516,
        589,
        295,
        189,
        54,
        355,
        339,
        166,
        596,
        299,
        649,
        95,
        121,
        555,
        338,
        527,
        211,
        195,
        508,
        117,
        520,
        511,
        740,
        547,
        246,
        158,
        279,
        160,
        72,
        544,
        179,
        73,
        557,
        307,
        712,
        732,
        548,
        321,
        739,
        713,
        42,
        698,
        448,
        55,
        71,
        232,
        273,
        478,
        319,
        35,
        25,
        667,
        252,
        606,
        568,
        562,
        687,
        599,
        598,
        595,
        489,
        390,
        472,
        428,
        608,
        607,
        102,
        129,
        132,
        663,
        395,
        347,
        222,
        109,
        84,
        348,
        40,
        221,
        294,
        392,
        242,
        127,
        146,
        680,
        459,
        336,
        70,
        68,
        736,
        60,
        690,
        509,
        530,
        80,
        259,
        722,
        196,
        99,
        576,
        474,
        731,
        701,
        284,
        420,
        550,
        126,
        134,
        638,
        473,
        410,
        358,
        17,
        353,
        28,
        637,
        571,
        270,
        434,
        234,
        538,
        286,
        679,
        124,
        90,
        372,
        414
    ],
    "Global Optimum": 0,
    "Algorithm": "Genetic algorithm",
    "Parameters": {
        "population": 30,
        "offspring": 30,
        "mutation probability": 0.0013333333333333333,
        "crossover probability": 0.9
    },
    "Fitness": 890271,
    "Solution": [
        33,
        611,
        376,
        93,
        411,
        209,
        48,
        597,
        360,
        239,
        325,
        162,
        407,
        213,
        429,
        672,
        69,
        233,
        417,
        142,
        633,
        593,
        136,
        145,
        308,
        371,
        651,
        418,
        684,
        110,
        52,
        274,
        41,
        157,
        480,
        646,
        297,
        534,
        588,
        456,
        282,
        116,
        151,
        165,
        463,
        556,
        674,
        369,
        569,
        260,
        560,
        475,
        549,
        618,
        10,
        241,
        251,
        628,
        580,
        31,
        676,
        577,
        401,
        193,
        187,
        415,
        49,
        143,
        53,
        656,
        554,
        192,
        287,
        438,
        648,
        76,
        631,
        737,
        400,
        694,
        664,
        291,
        720,
        675,
        357,
        612,
        605,
        9,
        245,
        445,
        432,
        567,
        654,
        149,
        163,
        271,
        304,
        91,
        92,
        107,
        314,
        170,
        249,
        253,
        533,
        330,
        692,
        58,
        659,
        669,
        518,
        140,
        682,
        627,
        373,
        276,
        536,
        57,
        167,
        586,
        38,
        199,
        552,
        205,
        332,
        312,
        328,
        88,
        379,
        268,
        655,
        579,
        128,
        483,
        293,
        326,
        217,
        194,
        354,
        693,
        406,
        416,
        591,
        647,
        34,
        225,
        570,
        228,
        344,
        262,
        404,
        203,
        574,
        182,
        397,
        331,
        514,
        604,
        139,
        202,
        558,
        572,
        29,
        313,
        707,
        519,
        89,
        388,
        281,
        255,
        561,
        303,
        272,
        65,
        141,
        683,
        206,
        135,
        45,
        387,
        215,
        144,
        496,
        229,
        430,
        630,
        594,
        497,
        83,
        156,
        362,
        12,
        14,
        161,
        498,
        100,
        324,
        439,
        184,
        444,
        399,
        8,
        315,
        105,
        3,
        553,
        138,
        734,
        747,
        377,
        191,
        641,
        563,
        310,
        506,
        542,
        277,
        461,
        462,
        120,
        342,
        349,
        44,
        643,
        510,
        619,
        21,
        104,
        492,
        721,
        13,
        515,
        173,
        729,
        704,
        513,
        244,
        385,
        470,
        39,
        230,
        610,
        114,
        454,
        566,
        247,
        172,
        22,
        23,
        602,
        433,
        298,
        481,
        302,
        238,
        108,
        640,
        590,
        402,
        289,
        20,
        67,
        409,
        103,
        689,
        212,
        573,
        183,
        292,
        502,
        218,
        449,
        343,
        296,
        745,
        174,
        335,
        528,
        616,
        673,
        658,
        425,
        66,
        427,
        644,
        346,
        152,
        393,
        460,
        688,
        1,
        458,
        19,
        408,
        77,
        15,
        476,
        30,
        113,
        311,
        450,
        587,
        318,
        101,
        501,
        405,
        150,
        235,
        63,
        370,
        337,
        290,
        46,
        236,
        176,
        487,
        467,
        364,
        412,
        288,
        419,
        365,
        320,
        578,
        207,
        735,
        453,
        522,
        423,
        436,
        351,
        216,
        686,
        367,
        702,
        670,
        507,
        6,
        523,
        148,
        705,
        629,
        541,
        153,
        154,
        177,
        452,
        111,
        171,
        384,
        243,
        125,
        620,
        374,
        131,
        317,
        381,
        5,
        601,
        350,
        112,
        322,
        27,
        652,
        603,
        256,
        657,
        700,
        178,
        237,
        359,
        435,
        309,
        257,
        85,
        471,
        208,
        231,
        642,
        64,
        61,
        74,
        581,
        615,
        201,
        261,
        484,
        224,
        267,
        743,
        617,
        685,
        75,
        431,
        345,
        248,
        86,
        283,
        32,
        280,
        363,
        394,
        543,
        546,
        718,
        334,
        368,
        499,
        730,
        382,
        437,
        265,
        710,
        490,
        482,
        505,
        181,
        665,
        491,
        517,
        391,
        190,
        662,
        724,
        250,
        723,
        440,
        668,
        56,
        677,
        266,
        175,
        621,
        185,
        51,
        164,
        214,
        106,
        278,
        469,
        366,
        254,
        709,
        609,
        426,
        316,
        96,
        540,
        240,
        733,
        24,
        396,
        671,
        691,
        389,
        600,
        398,
        479,
        613,
        645,
        155,
        375,
        200,
        742,
        727,
        159,
        79,
        210,
        477,
        443,
        493,
        625,
        198,
        123,
        94,
        97,
        466,
        219,
        653,
        59,
        441,
        585,
        714,
        622,
        699,
        119,
        711,
        37,
        451,
        485,
        526,
        263,
        50,
        378,
        744,
        223,
        227,
        636,
        678,
        333,
        551,
        582,
        525,
        660,
        16,
        696,
        424,
        559,
        0,
        545,
        465,
        697,
        300,
        413,
        421,
        457,
        81,
        531,
        749,
        133,
        301,
        275,
        486,
        626,
        635,
        748,
        82,
        565,
        494,
        623,
        306,
        719,
        122,
        403,
        539,
        464,
        341,
        695,
        703,
        327,
        495,
        269,
        186,
        447,
        352,
        78,
        18,
        323,
        715,
        329,
        340,
        503,
        708,
        661,
        98,
        614,
        583,
        575,
        188,
        537,
        4,
        532,
        7,
        488,
        87,
        422,
        529,
        624,
        264,
        650,
        681,
        500,
        728,
        666,
        285,
        442,
        204,
        634,
        147,
        741,
        137,
        47,
        455,
        521,
        726,
        446,
        386,
        706,
        36,
        468,
        535,
        564,
        220,
        115,
        504,
        118,
        43,
        169,
        632,
        746,
        26,
        197,
        716,
        725,
        717,
        738,
        226,
        180,
        524,
        258,
        130,
        11,
        361,
        356,
        383,
        639,
        380,
        168,
        305,
        592,
        584,
        512,
        2,
        62,
        516,
        589,
        295,
        189,
        54,
        355,
        339,
        166,
        596,
        299,
        649,
        95,
        121,
        555,
        338,
        527,
        211,
        195,
        508,
        117,
        520,
        511,
        740,
        547,
        246,
        158,
        279,
        160,
        72,
        544,
        179,
        73,
        557,
        307,
        712,
        732,
        548,
        321,
        739,
        713,
        42,
        698,
        448,
        55,
        71,
        232,
        273,
        478,
        319,
        35,
        25,
        667,
        252,
        606,
        568,
        562,
        687,
        599,
        598,
        595,
        489,
        390,
        472,
        428,
        608,
        607,
        102,
        129,
        132,
        663,
        395,
        347,
        222,
        109,
        84,
        348,
        40,
        221,
        294,
        392,
        242,
        127,
        146,
        680,
        459,
        336,
        70,
        68,
        736,
        60,
        690,
        509,
        530,
        80,
        259,
        722,
        196,
        99,
        576,
        474,
        731,
        701,
        284,
        420,
        550,
        126,
        134,
        638,
        473,
        410,
        358,
        17,
        353,
        28,
        637,
        571,
        270,
        434,
        234,
        538,
        286,
        679,
        124,
        90,
        372,
        414
    ],
    "Nb of functions evaluations": 400020,
    "Computational time in seconds": 3838.875437259674,
    "Stopping criterion in evaluations": 400000
}